50
    1   291   281
    2   252   242
    3   452   442
    4   452   442
    5   366   356
    6   478   468
    7   435   425
    8   178   168
    9   224   214
   10   387   377
   11   273   263
   12   367   357
   13    85    75
   14   227   217
   15    51    41
   16   429   419
   17   329   319
   18   204   194
   19   322   312
   20   144   134
   21   335   325
   22   497   487
   23   247   237
   24   137   127
   25   320   310
   26   309   299
   27   396   386
   28   440   430
   29   316   306
   30   369   359
   31   356   346
   32   510   500
   33   217   207
   34    40    30
   35   128   118
   36   248   238
   37   189   179
   38   396   386
   39   218   208
   40   179   169
   41    61    51
   42   263   253
   43   463   453
   44    69    59
   45   248   238
   46   150   140
   47   510   500
   48   106    96
   49   192   182
   50    67    57
2237
